p cnf 742 2417
-2 -4 51 0
2 -4 -51 0
-2 4 -51 0
2 4 51 0
-8 10 52 0
8 10 -52 0
-8 -10 -52 0
8 -10 52 0
11 -12 53 0
-11 -12 -53 0
11 12 -53 0
-11 12 53 0
13 16 54 0
-13 16 -54 0
13 -16 -54 0
-13 -16 54 0
-17 18 55 0
17 18 -55 0
-17 -18 -55 0
17 -18 55 0
20 -22 56 0
-20 -22 -56 0
20 22 -56 0
-20 22 56 0
-24 -25 57 0
24 -25 -57 0
-24 25 -57 0
24 25 57 0
-26 -28 58 0
26 -28 -58 0
-26 28 -58 0
26 28 58 0
29 30 59 0
-29 30 -59 0
29 -30 -59 0
-29 -30 59 0
31 32 60 0
-31 32 -60 0
31 -32 -60 0
-31 -32 60 0
34 -35 61 0
-34 -35 -61 0
34 35 -61 0
-34 35 61 0
-40 -42 62 0
40 -42 -62 0
-40 42 -62 0
40 42 62 0
-47 -50 63 0
47 -50 -63 0
-47 50 -63 0
47 50 63 0
51 -52 64 0
-51 -52 -64 0
51 52 -64 0
-51 52 64 0
53 -54 65 0
-53 -54 -65 0
53 54 -65 0
-53 54 65 0
55 -56 66 0
-55 -56 -66 0
55 56 -66 0
-55 56 66 0
57 -58 67 0
-57 -58 -67 0
57 58 -67 0
-57 58 67 0
59 -60 68 0
-59 -60 -68 0
59 60 -68 0
-59 60 68 0
61 -62 69 0
-61 -62 -69 0
61 62 -69 0
-61 62 69 0
63 -64 70 0
-63 -64 -70 0
63 64 -70 0
-63 64 70 0
65 -66 71 0
-65 -66 -71 0
65 66 -71 0
-65 66 71 0
67 -68 72 0
-67 -68 -72 0
67 68 -72 0
-67 68 72 0
69 -70 73 0
-69 -70 -73 0
69 70 -73 0
-69 70 73 0
71 -72 74 0
-71 -72 -74 0
71 72 -74 0
-71 72 74 0
73 74 0
-73 -74 0
-1 -3 75 0
1 -3 -75 0
-1 3 -75 0
1 3 75 0
4 5 76 0
-4 5 -76 0
4 -5 -76 0
-4 -5 76 0
7 -9 77 0
-7 -9 -77 0
7 9 -77 0
-7 9 77 0
-11 -13 78 0
11 -13 -78 0
-11 13 -78 0
11 13 78 0
-15 -17 79 0
15 -17 -79 0
-15 17 -79 0
15 17 79 0
18 19 80 0
-18 19 -80 0
18 -19 -80 0
-18 -19 80 0
21 -22 81 0
-21 -22 -81 0
21 22 -81 0
-21 22 81 0
-23 24 82 0
23 24 -82 0
-23 -24 -82 0
23 -24 82 0
26 27 83 0
-26 27 -83 0
26 -27 -83 0
-26 -27 83 0
-29 -35 84 0
29 -35 -84 0
-29 35 -84 0
29 35 84 0
38 -42 85 0
-38 -42 -85 0
38 42 -85 0
-38 42 85 0
43 44 86 0
-43 44 -86 0
43 -44 -86 0
-43 -44 86 0
74 -75 87 0
-74 -75 -87 0
74 75 -87 0
-74 75 87 0
76 -77 88 0
-76 -77 -88 0
76 77 -88 0
-76 77 88 0
78 -79 89 0
-78 -79 -89 0
78 79 -89 0
-78 79 89 0
80 -81 90 0
-80 -81 -90 0
80 81 -90 0
-80 81 90 0
82 -83 91 0
-82 -83 -91 0
82 83 -91 0
-82 83 91 0
84 -85 92 0
-84 -85 -92 0
84 85 -92 0
-84 85 92 0
86 -87 93 0
-86 -87 -93 0
86 87 -93 0
-86 87 93 0
88 -89 94 0
-88 -89 -94 0
88 89 -94 0
-88 89 94 0
90 -91 95 0
-90 -91 -95 0
90 91 -95 0
-90 91 95 0
92 -93 96 0
-92 -93 -96 0
92 93 -96 0
-92 93 96 0
94 -95 97 0
-94 -95 -97 0
94 95 -97 0
-94 95 97 0
96 97 0
-96 -97 0
-1 -3 98 0
1 -3 -98 0
-1 3 -98 0
1 3 98 0
-5 8 99 0
5 8 -99 0
-5 -8 -99 0
5 -8 99 0
-11 15 100 0
11 15 -100 0
-11 -15 -100 0
11 -15 100 0
-16 -18 101 0
16 -18 -101 0
-16 18 -101 0
16 18 101 0
19 20 102 0
-19 20 -102 0
19 -20 -102 0
-19 -20 102 0
31 32 103 0
-31 32 -103 0
31 -32 -103 0
-31 -32 103 0
-35 40 104 0
35 40 -104 0
-35 -40 -104 0
35 -40 104 0
43 44 105 0
-43 44 -105 0
43 -44 -105 0
-43 -44 105 0
-45 -46 106 0
45 -46 -106 0
-45 46 -106 0
45 46 106 0
97 -98 107 0
-97 -98 -107 0
97 98 -107 0
-97 98 107 0
99 -100 108 0
-99 -100 -108 0
99 100 -108 0
-99 100 108 0
101 -102 109 0
-101 -102 -109 0
101 102 -109 0
-101 102 109 0
103 -104 110 0
-103 -104 -110 0
103 104 -110 0
-103 104 110 0
105 -106 111 0
-105 -106 -111 0
105 106 -111 0
-105 106 111 0
107 -108 112 0
-107 -108 -112 0
107 108 -112 0
-107 108 112 0
109 -110 113 0
-109 -110 -113 0
109 110 -113 0
-109 110 113 0
-111 -112 113 0
111 -112 -113 0
-111 112 -113 0
111 112 113 0
-3 -4 114 0
3 -4 -114 0
-3 4 -114 0
3 4 114 0
-11 -14 115 0
11 -14 -115 0
-11 14 -115 0
11 14 115 0
15 16 116 0
-15 16 -116 0
15 -16 -116 0
-15 -16 116 0
-20 23 117 0
20 23 -117 0
-20 -23 -117 0
20 -23 117 0
24 27 118 0
-24 27 -118 0
24 -27 -118 0
-24 -27 118 0
-28 29 119 0
28 29 -119 0
-28 -29 -119 0
28 -29 119 0
31 -37 120 0
-31 -37 -120 0
31 37 -120 0
-31 37 120 0
39 -41 121 0
-39 -41 -121 0
39 41 -121 0
-39 41 121 0
-42 -43 122 0
42 -43 -122 0
-42 43 -122 0
42 43 122 0
-46 47 123 0
46 47 -123 0
-46 -47 -123 0
46 -47 123 0
113 -114 124 0
-113 -114 -124 0
113 114 -124 0
-113 114 124 0
115 -116 125 0
-115 -116 -125 0
115 116 -125 0
-115 116 125 0
117 -118 126 0
-117 -118 -126 0
117 118 -126 0
-117 118 126 0
119 -120 127 0
-119 -120 -127 0
119 120 -127 0
-119 120 127 0
121 -122 128 0
-121 -122 -128 0
121 122 -128 0
-121 122 128 0
123 -124 129 0
-123 -124 -129 0
123 124 -129 0
-123 124 129 0
125 -126 130 0
-125 -126 -130 0
125 126 -130 0
-125 126 130 0
127 -128 131 0
-127 -128 -131 0
127 128 -131 0
-127 128 131 0
-129 -130 131 0
129 -130 -131 0
-129 130 -131 0
129 130 131 0
-1 -4 132 0
1 -4 -132 0
-1 4 -132 0
1 4 132 0
-8 -9 133 0
8 -9 -133 0
-8 9 -133 0
8 9 133 0
-11 13 134 0
11 13 -134 0
-11 -13 -134 0
11 -13 134 0
-14 17 135 0
14 17 -135 0
-14 -17 -135 0
14 -17 135 0
-19 21 136 0
19 21 -136 0
-19 -21 -136 0
19 -21 136 0
-22 23 137 0
22 23 -137 0
-22 -23 -137 0
22 -23 137 0
25 -27 138 0
-25 -27 -138 0
25 27 -138 0
-25 27 138 0
-28 -31 139 0
28 -31 -139 0
-28 31 -139 0
28 31 139 0
32 33 140 0
-32 33 -140 0
32 -33 -140 0
-32 -33 140 0
-35 -37 141 0
35 -37 -141 0
-35 37 -141 0
35 37 141 0
-40 -42 142 0
40 -42 -142 0
-40 42 -142 0
40 42 142 0
43 46 143 0
-43 46 -143 0
43 -46 -143 0
-43 -46 143 0
132 -133 144 0
-132 -133 -144 0
132 133 -144 0
-132 133 144 0
134 -135 145 0
-134 -135 -145 0
134 135 -145 0
-134 135 145 0
136 -137 146 0
-136 -137 -146 0
136 137 -146 0
-136 137 146 0
138 -139 147 0
-138 -139 -147 0
138 139 -147 0
-138 139 147 0
140 -141 148 0
-140 -141 -148 0
140 141 -148 0
-140 141 148 0
142 -143 149 0
-142 -143 -149 0
142 143 -149 0
-142 143 149 0
144 -145 150 0
-144 -145 -150 0
144 145 -150 0
-144 145 150 0
146 -147 151 0
-146 -147 -151 0
146 147 -151 0
-146 147 151 0
148 -149 152 0
-148 -149 -152 0
148 149 -152 0
-148 149 152 0
-150 -151 152 0
150 -151 -152 0
-150 151 -152 0
150 151 152 0
-1 2 153 0
1 2 -153 0
-1 -2 -153 0
1 -2 153 0
-5 6 154 0
5 6 -154 0
-5 -6 -154 0
5 -6 154 0
-8 9 155 0
8 9 -155 0
-8 -9 -155 0
8 -9 155 0
11 12 156 0
-11 12 -156 0
11 -12 -156 0
-11 -12 156 0
14 15 157 0
-14 15 -157 0
14 -15 -157 0
-14 -15 157 0
-16 19 158 0
16 19 -158 0
-16 -19 -158 0
16 -19 158 0
20 -21 159 0
-20 -21 -159 0
20 21 -159 0
-20 21 159 0
-23 -24 160 0
23 -24 -160 0
-23 24 -160 0
23 24 160 0
26 29 161 0
-26 29 -161 0
26 -29 -161 0
-26 -29 161 0
31 32 162 0
-31 32 -162 0
31 -32 -162 0
-31 -32 162 0
34 -38 163 0
-34 -38 -163 0
34 38 -163 0
-34 38 163 0
-42 -45 164 0
42 -45 -164 0
-42 45 -164 0
42 45 164 0
152 -153 165 0
-152 -153 -165 0
152 153 -165 0
-152 153 165 0
154 -155 166 0
-154 -155 -166 0
154 155 -166 0
-154 155 166 0
156 -157 167 0
-156 -157 -167 0
156 157 -167 0
-156 157 167 0
158 -159 168 0
-158 -159 -168 0
158 159 -168 0
-158 159 168 0
160 -161 169 0
-160 -161 -169 0
160 161 -169 0
-160 161 169 0
162 -163 170 0
-162 -163 -170 0
162 163 -170 0
-162 163 170 0
164 -165 171 0
-164 -165 -171 0
164 165 -171 0
-164 165 171 0
166 -167 172 0
-166 -167 -172 0
166 167 -172 0
-166 167 172 0
168 -169 173 0
-168 -169 -173 0
168 169 -173 0
-168 169 173 0
170 -171 174 0
-170 -171 -174 0
170 171 -174 0
-170 171 174 0
172 -173 175 0
-172 -173 -175 0
172 173 -175 0
-172 173 175 0
174 175 0
-174 -175 0
8 -10 176 0
-8 -10 -176 0
8 10 -176 0
-8 10 176 0
11 -13 177 0
-11 -13 -177 0
11 13 -177 0
-11 13 177 0
-14 15 178 0
14 15 -178 0
-14 -15 -178 0
14 -15 178 0
16 17 179 0
-16 17 -179 0
16 -17 -179 0
-16 -17 179 0
-19 20 180 0
19 20 -180 0
-19 -20 -180 0
19 -20 180 0
-21 -22 181 0
21 -22 -181 0
-21 22 -181 0
21 22 181 0
23 -24 182 0
-23 -24 -182 0
23 24 -182 0
-23 24 182 0
27 -31 183 0
-27 -31 -183 0
27 31 -183 0
-27 31 183 0
-32 33 184 0
32 33 -184 0
-32 -33 -184 0
32 -33 184 0
-34 -35 185 0
34 -35 -185 0
-34 35 -185 0
34 35 185 0
-36 37 186 0
36 37 -186 0
-36 -37 -186 0
36 -37 186 0
38 -44 187 0
-38 -44 -187 0
38 44 -187 0
-38 44 187 0
45 47 188 0
-45 47 -188 0
45 -47 -188 0
-45 -47 188 0
-48 49 189 0
48 49 -189 0
-48 -49 -189 0
48 -49 189 0
175 -176 190 0
-175 -176 -190 0
175 176 -190 0
-175 176 190 0
177 -178 191 0
-177 -178 -191 0
177 178 -191 0
-177 178 191 0
179 -180 192 0
-179 -180 -192 0
179 180 -192 0
-179 180 192 0
181 -182 193 0
-181 -182 -193 0
181 182 -193 0
-181 182 193 0
183 -184 194 0
-183 -184 -194 0
183 184 -194 0
-183 184 194 0
185 -186 195 0
-185 -186 -195 0
185 186 -195 0
-185 186 195 0
187 -188 196 0
-187 -188 -196 0
187 188 -196 0
-187 188 196 0
189 -190 197 0
-189 -190 -197 0
189 190 -197 0
-189 190 197 0
191 -192 198 0
-191 -192 -198 0
191 192 -198 0
-191 192 198 0
193 -194 199 0
-193 -194 -199 0
193 194 -199 0
-193 194 199 0
195 -196 200 0
-195 -196 -200 0
195 196 -200 0
-195 196 200 0
197 -198 201 0
-197 -198 -201 0
197 198 -201 0
-197 198 201 0
199 -200 202 0
-199 -200 -202 0
199 200 -202 0
-199 200 202 0
201 202 0
-201 -202 0
2 -3 203 0
-2 -3 -203 0
2 3 -203 0
-2 3 203 0
4 5 204 0
-4 5 -204 0
4 -5 -204 0
-4 -5 204 0
-8 9 205 0
8 9 -205 0
-8 -9 -205 0
8 -9 205 0
-12 -14 206 0
12 -14 -206 0
-12 14 -206 0
12 14 206 0
16 -17 207 0
-16 -17 -207 0
16 17 -207 0
-16 17 207 0
-18 -19 208 0
18 -19 -208 0
-18 19 -208 0
18 19 208 0
-20 -23 209 0
20 -23 -209 0
-20 23 -209 0
20 23 209 0
-25 -28 210 0
25 -28 -210 0
-25 28 -210 0
25 28 210 0
35 36 211 0
-35 36 -211 0
35 -36 -211 0
-35 -36 211 0
38 -39 212 0
-38 -39 -212 0
38 39 -212 0
-38 39 212 0
41 42 213 0
-41 42 -213 0
41 -42 -213 0
-41 -42 213 0
-49 50 214 0
49 50 -214 0
-49 -50 -214 0
49 -50 214 0
203 -204 215 0
-203 -204 -215 0
203 204 -215 0
-203 204 215 0
205 -206 216 0
-205 -206 -216 0
205 206 -216 0
-205 206 216 0
207 -208 217 0
-207 -208 -217 0
207 208 -217 0
-207 208 217 0
209 -210 218 0
-209 -210 -218 0
209 210 -218 0
-209 210 218 0
211 -212 219 0
-211 -212 -219 0
211 212 -219 0
-211 212 219 0
213 -214 220 0
-213 -214 -220 0
213 214 -220 0
-213 214 220 0
215 -216 221 0
-215 -216 -221 0
215 216 -221 0
-215 216 221 0
217 -218 222 0
-217 -218 -222 0
217 218 -222 0
-217 218 222 0
219 -220 223 0
-219 -220 -223 0
219 220 -223 0
-219 220 223 0
-221 -222 223 0
221 -222 -223 0
-221 222 -223 0
221 222 223 0
3 -5 224 0
-3 -5 -224 0
3 5 -224 0
-3 5 224 0
-6 -7 225 0
6 -7 -225 0
-6 7 -225 0
6 7 225 0
-8 11 226 0
8 11 -226 0
-8 -11 -226 0
8 -11 226 0
-12 -14 227 0
12 -14 -227 0
-12 14 -227 0
12 14 227 0
15 -16 228 0
-15 -16 -228 0
15 16 -228 0
-15 16 228 0
17 22 229 0
-17 22 -229 0
17 -22 -229 0
-17 -22 229 0
-23 25 230 0
23 25 -230 0
-23 -25 -230 0
23 -25 230 0
-27 30 231 0
27 30 -231 0
-27 -30 -231 0
27 -30 231 0
36 38 232 0
-36 38 -232 0
36 -38 -232 0
-36 -38 232 0
43 -44 233 0
-43 -44 -233 0
43 44 -233 0
-43 44 233 0
223 -224 234 0
-223 -224 -234 0
223 224 -234 0
-223 224 234 0
225 -226 235 0
-225 -226 -235 0
225 226 -235 0
-225 226 235 0
227 -228 236 0
-227 -228 -236 0
227 228 -236 0
-227 228 236 0
229 -230 237 0
-229 -230 -237 0
229 230 -237 0
-229 230 237 0
231 -232 238 0
-231 -232 -238 0
231 232 -238 0
-231 232 238 0
233 -234 239 0
-233 -234 -239 0
233 234 -239 0
-233 234 239 0
235 -236 240 0
-235 -236 -240 0
235 236 -240 0
-235 236 240 0
237 -238 241 0
-237 -238 -241 0
237 238 -241 0
-237 238 241 0
-239 -240 241 0
239 -240 -241 0
-239 240 -241 0
239 240 241 0
4 -5 242 0
-4 -5 -242 0
4 5 -242 0
-4 5 242 0
6 8 243 0
-6 8 -243 0
6 -8 -243 0
-6 -8 243 0
-12 14 244 0
12 14 -244 0
-12 -14 -244 0
12 -14 244 0
-17 21 245 0
17 21 -245 0
-17 -21 -245 0
17 -21 245 0
-23 26 246 0
23 26 -246 0
-23 -26 -246 0
23 -26 246 0
-28 -29 247 0
28 -29 -247 0
-28 29 -247 0
28 29 247 0
30 -31 248 0
-30 -31 -248 0
30 31 -248 0
-30 31 248 0
32 33 249 0
-32 33 -249 0
32 -33 -249 0
-32 -33 249 0
34 37 250 0
-34 37 -250 0
34 -37 -250 0
-34 -37 250 0
39 -42 251 0
-39 -42 -251 0
39 42 -251 0
-39 42 251 0
44 46 252 0
-44 46 -252 0
44 -46 -252 0
-44 -46 252 0
-47 50 253 0
47 50 -253 0
-47 -50 -253 0
47 -50 253 0
242 -243 254 0
-242 -243 -254 0
242 243 -254 0
-242 243 254 0
244 -245 255 0
-244 -245 -255 0
244 245 -255 0
-244 245 255 0
246 -247 256 0
-246 -247 -256 0
246 247 -256 0
-246 247 256 0
248 -249 257 0
-248 -249 -257 0
248 249 -257 0
-248 249 257 0
250 -251 258 0
-250 -251 -258 0
250 251 -258 0
-250 251 258 0
252 -253 259 0
-252 -253 -259 0
252 253 -259 0
-252 253 259 0
254 -255 260 0
-254 -255 -260 0
254 255 -260 0
-254 255 260 0
256 -257 261 0
-256 -257 -261 0
256 257 -261 0
-256 257 261 0
258 -259 262 0
-258 -259 -262 0
258 259 -262 0
-258 259 262 0
-260 -261 262 0
260 -261 -262 0
-260 261 -262 0
260 261 262 0
-1 3 263 0
1 3 -263 0
-1 -3 -263 0
1 -3 263 0
-4 6 264 0
4 6 -264 0
-4 -6 -264 0
4 -6 264 0
7 8 265 0
-7 8 -265 0
7 -8 -265 0
-7 -8 265 0
10 11 266 0
-10 11 -266 0
10 -11 -266 0
-10 -11 266 0
12 13 267 0
-12 13 -267 0
12 -13 -267 0
-12 -13 267 0
14 -17 268 0
-14 -17 -268 0
14 17 -268 0
-14 17 268 0
-19 -20 269 0
19 -20 -269 0
-19 20 -269 0
19 20 269 0
-21 -22 270 0
21 -22 -270 0
-21 22 -270 0
21 22 270 0
29 30 271 0
-29 30 -271 0
29 -30 -271 0
-29 -30 271 0
32 34 272 0
-32 34 -272 0
32 -34 -272 0
-32 -34 272 0
-38 -39 273 0
38 -39 -273 0
-38 39 -273 0
38 39 273 0
-42 44 274 0
42 44 -274 0
-42 -44 -274 0
42 -44 274 0
46 48 275 0
-46 48 -275 0
46 -48 -275 0
-46 -48 275 0
263 -264 276 0
-263 -264 -276 0
263 264 -276 0
-263 264 276 0
265 -266 277 0
-265 -266 -277 0
265 266 -277 0
-265 266 277 0
267 -268 278 0
-267 -268 -278 0
267 268 -278 0
-267 268 278 0
269 -270 279 0
-269 -270 -279 0
269 270 -279 0
-269 270 279 0
271 -272 280 0
-271 -272 -280 0
271 272 -280 0
-271 272 280 0
273 -274 281 0
-273 -274 -281 0
273 274 -281 0
-273 274 281 0
275 -276 282 0
-275 -276 -282 0
275 276 -282 0
-275 276 282 0
277 -278 283 0
-277 -278 -283 0
277 278 -283 0
-277 278 283 0
279 -280 284 0
-279 -280 -284 0
279 280 -284 0
-279 280 284 0
281 -282 285 0
-281 -282 -285 0
281 282 -285 0
-281 282 285 0
283 -284 286 0
-283 -284 -286 0
283 284 -286 0
-283 284 286 0
285 286 0
-285 -286 0
-1 2 287 0
1 2 -287 0
-1 -2 -287 0
1 -2 287 0
-3 -5 288 0
3 -5 -288 0
-3 5 -288 0
3 5 288 0
-10 11 289 0
10 11 -289 0
-10 -11 -289 0
10 -11 289 0
13 -22 290 0
-13 -22 -290 0
13 22 -290 0
-13 22 290 0
-23 -25 291 0
23 -25 -291 0
-23 25 -291 0
23 25 291 0
-28 29 292 0
28 29 -292 0
-28 -29 -292 0
28 -29 292 0
30 -32 293 0
-30 -32 -293 0
30 32 -293 0
-30 32 293 0
-34 -35 294 0
34 -35 -294 0
-34 35 -294 0
34 35 294 0
-38 -39 295 0
38 -39 -295 0
-38 39 -295 0
38 39 295 0
-43 45 296 0
43 45 -296 0
-43 -45 -296 0
43 -45 296 0
-46 47 297 0
46 47 -297 0
-46 -47 -297 0
46 -47 297 0
287 -288 298 0
-287 -288 -298 0
287 288 -298 0
-287 288 298 0
289 -290 299 0
-289 -290 -299 0
289 290 -299 0
-289 290 299 0
291 -292 300 0
-291 -292 -300 0
291 292 -300 0
-291 292 300 0
293 -294 301 0
-293 -294 -301 0
293 294 -301 0
-293 294 301 0
295 -296 302 0
-295 -296 -302 0
295 296 -302 0
-295 296 302 0
297 -298 303 0
-297 -298 -303 0
297 298 -303 0
-297 298 303 0
299 -300 304 0
-299 -300 -304 0
299 300 -304 0
-299 300 304 0
301 -302 305 0
-301 -302 -305 0
301 302 -305 0
-301 302 305 0
-303 -304 305 0
303 -304 -305 0
-303 304 -305 0
303 304 305 0
1 4 306 0
-1 4 -306 0
1 -4 -306 0
-1 -4 306 0
8 12 307 0
-8 12 -307 0
8 -12 -307 0
-8 -12 307 0
-13 -14 308 0
13 -14 -308 0
-13 14 -308 0
13 14 308 0
-16 20 309 0
16 20 -309 0
-16 -20 -309 0
16 -20 309 0
21 -23 310 0
-21 -23 -310 0
21 23 -310 0
-21 23 310 0
25 26 311 0
-25 26 -311 0
25 -26 -311 0
-25 -26 311 0
29 30 312 0
-29 30 -312 0
29 -30 -312 0
-29 -30 312 0
-32 37 313 0
32 37 -313 0
-32 -37 -313 0
32 -37 313 0
-38 -40 314 0
38 -40 -314 0
-38 40 -314 0
38 40 314 0
47 49 315 0
-47 49 -315 0
47 -49 -315 0
-47 -49 315 0
306 -307 316 0
-306 -307 -316 0
306 307 -316 0
-306 307 316 0
308 -309 317 0
-308 -309 -317 0
308 309 -317 0
-308 309 317 0
310 -311 318 0
-310 -311 -318 0
310 311 -318 0
-310 311 318 0
312 -313 319 0
-312 -313 -319 0
312 313 -319 0
-312 313 319 0
314 -315 320 0
-314 -315 -320 0
314 315 -320 0
-314 315 320 0
316 -317 321 0
-316 -317 -321 0
316 317 -321 0
-316 317 321 0
318 -319 322 0
-318 -319 -322 0
318 319 -322 0
-318 319 322 0
-320 -321 322 0
320 -321 -322 0
-320 321 -322 0
320 321 322 0
-2 -3 323 0
2 -3 -323 0
-2 3 -323 0
2 3 323 0
4 5 324 0
-4 5 -324 0
4 -5 -324 0
-4 -5 324 0
6 7 325 0
-6 7 -325 0
6 -7 -325 0
-6 -7 325 0
-8 9 326 0
8 9 -326 0
-8 -9 -326 0
8 -9 326 0
11 -15 327 0
-11 -15 -327 0
11 15 -327 0
-11 15 327 0
-16 19 328 0
16 19 -328 0
-16 -19 -328 0
16 -19 328 0
-20 -22 329 0
20 -22 -329 0
-20 22 -329 0
20 22 329 0
24 25 330 0
-24 25 -330 0
24 -25 -330 0
-24 -25 330 0
26 -28 331 0
-26 -28 -331 0
26 28 -331 0
-26 28 331 0
29 31 332 0
-29 31 -332 0
29 -31 -332 0
-29 -31 332 0
-32 -34 333 0
32 -34 -333 0
-32 34 -333 0
32 34 333 0
-35 -38 334 0
35 -38 -334 0
-35 38 -334 0
35 38 334 0
42 44 335 0
-42 44 -335 0
42 -44 -335 0
-42 -44 335 0
46 50 336 0
-46 50 -336 0
46 -50 -336 0
-46 -50 336 0
323 -324 337 0
-323 -324 -337 0
323 324 -337 0
-323 324 337 0
325 -326 338 0
-325 -326 -338 0
325 326 -338 0
-325 326 338 0
327 -328 339 0
-327 -328 -339 0
327 328 -339 0
-327 328 339 0
329 -330 340 0
-329 -330 -340 0
329 330 -340 0
-329 330 340 0
331 -332 341 0
-331 -332 -341 0
331 332 -341 0
-331 332 341 0
333 -334 342 0
-333 -334 -342 0
333 334 -342 0
-333 334 342 0
335 -336 343 0
-335 -336 -343 0
335 336 -343 0
-335 336 343 0
337 -338 344 0
-337 -338 -344 0
337 338 -344 0
-337 338 344 0
339 -340 345 0
-339 -340 -345 0
339 340 -345 0
-339 340 345 0
341 -342 346 0
-341 -342 -346 0
341 342 -346 0
-341 342 346 0
343 -344 347 0
-343 -344 -347 0
343 344 -347 0
-343 344 347 0
345 -346 348 0
-345 -346 -348 0
345 346 -348 0
-345 346 348 0
347 348 0
-347 -348 0
-1 3 349 0
1 3 -349 0
-1 -3 -349 0
1 -3 349 0
6 7 350 0
-6 7 -350 0
6 -7 -350 0
-6 -7 350 0
8 12 351 0
-8 12 -351 0
8 -12 -351 0
-8 -12 351 0
-15 16 352 0
15 16 -352 0
-15 -16 -352 0
15 -16 352 0
-17 -18 353 0
17 -18 -353 0
-17 18 -353 0
17 18 353 0
-20 21 354 0
20 21 -354 0
-20 -21 -354 0
20 -21 354 0
22 25 355 0
-22 25 -355 0
22 -25 -355 0
-22 -25 355 0
-26 27 356 0
26 27 -356 0
-26 -27 -356 0
26 -27 356 0
-29 30 357 0
29 30 -357 0
-29 -30 -357 0
29 -30 357 0
-33 -35 358 0
33 -35 -358 0
-33 35 -358 0
33 35 358 0
38 -40 359 0
-38 -40 -359 0
38 40 -359 0
-38 40 359 0
43 46 360 0
-43 46 -360 0
43 -46 -360 0
-43 -46 360 0
47 48 361 0
-47 48 -361 0
47 -48 -361 0
-47 -48 361 0
348 -349 362 0
-348 -349 -362 0
348 349 -362 0
-348 349 362 0
350 -351 363 0
-350 -351 -363 0
350 351 -363 0
-350 351 363 0
352 -353 364 0
-352 -353 -364 0
352 353 -364 0
-352 353 364 0
354 -355 365 0
-354 -355 -365 0
354 355 -365 0
-354 355 365 0
356 -357 366 0
-356 -357 -366 0
356 357 -366 0
-356 357 366 0
358 -359 367 0
-358 -359 -367 0
358 359 -367 0
-358 359 367 0
360 -361 368 0
-360 -361 -368 0
360 361 -368 0
-360 361 368 0
362 -363 369 0
-362 -363 -369 0
362 363 -369 0
-362 363 369 0
364 -365 370 0
-364 -365 -370 0
364 365 -370 0
-364 365 370 0
366 -367 371 0
-366 -367 -371 0
366 367 -371 0
-366 367 371 0
368 -369 372 0
-368 -369 -372 0
368 369 -372 0
-368 369 372 0
370 -371 373 0
-370 -371 -373 0
370 371 -373 0
-370 371 373 0
372 373 0
-372 -373 0
-2 -3 374 0
2 -3 -374 0
-2 3 -374 0
2 3 374 0
-6 7 375 0
6 7 -375 0
-6 -7 -375 0
6 -7 375 0
-9 -10 376 0
9 -10 -376 0
-9 10 -376 0
9 10 376 0
11 -13 377 0
-11 -13 -377 0
11 13 -377 0
-11 13 377 0
-14 -15 378 0
14 -15 -378 0
-14 15 -378 0
14 15 378 0
-18 -21 379 0
18 -21 -379 0
-18 21 -379 0
18 21 379 0
-24 25 380 0
24 25 -380 0
-24 -25 -380 0
24 -25 380 0
-26 31 381 0
26 31 -381 0
-26 -31 -381 0
26 -31 381 0
32 -33 382 0
-32 -33 -382 0
32 33 -382 0
-32 33 382 0
36 -37 383 0
-36 -37 -383 0
36 37 -383 0
-36 37 383 0
39 43 384 0
-39 43 -384 0
39 -43 -384 0
-39 -43 384 0
45 47 385 0
-45 47 -385 0
45 -47 -385 0
-45 -47 385 0
48 49 386 0
-48 49 -386 0
48 -49 -386 0
-48 -49 386 0
374 -375 387 0
-374 -375 -387 0
374 375 -387 0
-374 375 387 0
376 -377 388 0
-376 -377 -388 0
376 377 -388 0
-376 377 388 0
378 -379 389 0
-378 -379 -389 0
378 379 -389 0
-378 379 389 0
380 -381 390 0
-380 -381 -390 0
380 381 -390 0
-380 381 390 0
382 -383 391 0
-382 -383 -391 0
382 383 -391 0
-382 383 391 0
384 -385 392 0
-384 -385 -392 0
384 385 -392 0
-384 385 392 0
386 -387 393 0
-386 -387 -393 0
386 387 -393 0
-386 387 393 0
388 -389 394 0
-388 -389 -394 0
388 389 -394 0
-388 389 394 0
390 -391 395 0
-390 -391 -395 0
390 391 -395 0
-390 391 395 0
392 -393 396 0
-392 -393 -396 0
392 393 -396 0
-392 393 396 0
394 -395 397 0
-394 -395 -397 0
394 395 -397 0
-394 395 397 0
396 397 0
-396 -397 0
1 3 398 0
-1 3 -398 0
1 -3 -398 0
-1 -3 398 0
-4 -6 399 0
4 -6 -399 0
-4 6 -399 0
4 6 399 0
-7 10 400 0
7 10 -400 0
-7 -10 -400 0
7 -10 400 0
-11 -12 401 0
11 -12 -401 0
-11 12 -401 0
11 12 401 0
-13 14 402 0
13 14 -402 0
-13 -14 -402 0
13 -14 402 0
-15 -17 403 0
15 -17 -403 0
-15 17 -403 0
15 17 403 0
-20 -21 404 0
20 -21 -404 0
-20 21 -404 0
20 21 404 0
-22 26 405 0
22 26 -405 0
-22 -26 -405 0
22 -26 405 0
-28 -31 406 0
28 -31 -406 0
-28 31 -406 0
28 31 406 0
35 41 407 0
-35 41 -407 0
35 -41 -407 0
-35 -41 407 0
-43 -44 408 0
43 -44 -408 0
-43 44 -408 0
43 44 408 0
45 -46 409 0
-45 -46 -409 0
45 46 -409 0
-45 46 409 0
49 -50 410 0
-49 -50 -410 0
49 50 -410 0
-49 50 410 0
398 -399 411 0
-398 -399 -411 0
398 399 -411 0
-398 399 411 0
400 -401 412 0
-400 -401 -412 0
400 401 -412 0
-400 401 412 0
402 -403 413 0
-402 -403 -413 0
402 403 -413 0
-402 403 413 0
404 -405 414 0
-404 -405 -414 0
404 405 -414 0
-404 405 414 0
406 -407 415 0
-406 -407 -415 0
406 407 -415 0
-406 407 415 0
408 -409 416 0
-408 -409 -416 0
408 409 -416 0
-408 409 416 0
410 -411 417 0
-410 -411 -417 0
410 411 -417 0
-410 411 417 0
412 -413 418 0
-412 -413 -418 0
412 413 -418 0
-412 413 418 0
414 -415 419 0
-414 -415 -419 0
414 415 -419 0
-414 415 419 0
416 -417 420 0
-416 -417 -420 0
416 417 -420 0
-416 417 420 0
418 -419 421 0
-418 -419 -421 0
418 419 -421 0
-418 419 421 0
420 421 0
-420 -421 0
-2 3 422 0
2 3 -422 0
-2 -3 -422 0
2 -3 422 0
-6 7 423 0
6 7 -423 0
-6 -7 -423 0
6 -7 423 0
8 -9 424 0
-8 -9 -424 0
8 9 -424 0
-8 9 424 0
13 15 425 0
-13 15 -425 0
13 -15 -425 0
-13 -15 425 0
21 23 426 0
-21 23 -426 0
21 -23 -426 0
-21 -23 426 0
-26 28 427 0
26 28 -427 0
-26 -28 -427 0
26 -28 427 0
29 -30 428 0
-29 -30 -428 0
29 30 -428 0
-29 30 428 0
-31 35 429 0
31 35 -429 0
-31 -35 -429 0
31 -35 429 0
36 -38 430 0
-36 -38 -430 0
36 38 -430 0
-36 38 430 0
421 -422 431 0
-421 -422 -431 0
421 422 -431 0
-421 422 431 0
423 -424 432 0
-423 -424 -432 0
423 424 -432 0
-423 424 432 0
425 -426 433 0
-425 -426 -433 0
425 426 -433 0
-425 426 433 0
427 -428 434 0
-427 -428 -434 0
427 428 -434 0
-427 428 434 0
429 -430 435 0
-429 -430 -435 0
429 430 -435 0
-429 430 435 0
431 -432 436 0
-431 -432 -436 0
431 432 -436 0
-431 432 436 0
433 -434 437 0
-433 -434 -437 0
433 434 -437 0
-433 434 437 0
-435 -436 437 0
435 -436 -437 0
-435 436 -437 0
435 436 437 0
-1 -2 438 0
1 -2 -438 0
-1 2 -438 0
1 2 438 0
-5 -8 439 0
5 -8 -439 0
-5 8 -439 0
5 8 439 0
-9 -10 440 0
9 -10 -440 0
-9 10 -440 0
9 10 440 0
11 12 441 0
-11 12 -441 0
11 -12 -441 0
-11 -12 441 0
14 16 442 0
-14 16 -442 0
14 -16 -442 0
-14 -16 442 0
17 19 443 0
-17 19 -443 0
17 -19 -443 0
-17 -19 443 0
-20 -21 444 0
20 -21 -444 0
-20 21 -444 0
20 21 444 0
23 -27 445 0
-23 -27 -445 0
23 27 -445 0
-23 27 445 0
29 31 446 0
-29 31 -446 0
29 -31 -446 0
-29 -31 446 0
32 -34 447 0
-32 -34 -447 0
32 34 -447 0
-32 34 447 0
-36 40 448 0
36 40 -448 0
-36 -40 -448 0
36 -40 448 0
42 47 449 0
-42 47 -449 0
42 -47 -449 0
-42 -47 449 0
438 -439 450 0
-438 -439 -450 0
438 439 -450 0
-438 439 450 0
440 -441 451 0
-440 -441 -451 0
440 441 -451 0
-440 441 451 0
442 -443 452 0
-442 -443 -452 0
442 443 -452 0
-442 443 452 0
444 -445 453 0
-444 -445 -453 0
444 445 -453 0
-444 445 453 0
446 -447 454 0
-446 -447 -454 0
446 447 -454 0
-446 447 454 0
448 -449 455 0
-448 -449 -455 0
448 449 -455 0
-448 449 455 0
450 -451 456 0
-450 -451 -456 0
450 451 -456 0
-450 451 456 0
452 -453 457 0
-452 -453 -457 0
452 453 -457 0
-452 453 457 0
454 -455 458 0
-454 -455 -458 0
454 455 -458 0
-454 455 458 0
-456 -457 458 0
456 -457 -458 0
-456 457 -458 0
456 457 458 0
-1 3 459 0
1 3 -459 0
-1 -3 -459 0
1 -3 459 0
-6 -7 460 0
6 -7 -460 0
-6 7 -460 0
6 7 460 0
9 -13 461 0
-9 -13 -461 0
9 13 -461 0
-9 13 461 0
16 -17 462 0
-16 -17 -462 0
16 17 -462 0
-16 17 462 0
-19 -20 463 0
19 -20 -463 0
-19 20 -463 0
19 20 463 0
-22 23 464 0
22 23 -464 0
-22 -23 -464 0
22 -23 464 0
24 -25 465 0
-24 -25 -465 0
24 25 -465 0
-24 25 465 0
-27 -28 466 0
27 -28 -466 0
-27 28 -466 0
27 28 466 0
29 -30 467 0
-29 -30 -467 0
29 30 -467 0
-29 30 467 0
-36 -39 468 0
36 -39 -468 0
-36 39 -468 0
36 39 468 0
40 42 469 0
-40 42 -469 0
40 -42 -469 0
-40 -42 469 0
44 46 470 0
-44 46 -470 0
44 -46 -470 0
-44 -46 470 0
-47 48 471 0
47 48 -471 0
-47 -48 -471 0
47 -48 471 0
49 -50 472 0
-49 -50 -472 0
49 50 -472 0
-49 50 472 0
459 -460 473 0
-459 -460 -473 0
459 460 -473 0
-459 460 473 0
461 -462 474 0
-461 -462 -474 0
461 462 -474 0
-461 462 474 0
463 -464 475 0
-463 -464 -475 0
463 464 -475 0
-463 464 475 0
465 -466 476 0
-465 -466 -476 0
465 466 -476 0
-465 466 476 0
467 -468 477 0
-467 -468 -477 0
467 468 -477 0
-467 468 477 0
469 -470 478 0
-469 -470 -478 0
469 470 -478 0
-469 470 478 0
471 -472 479 0
-471 -472 -479 0
471 472 -479 0
-471 472 479 0
473 -474 480 0
-473 -474 -480 0
473 474 -480 0
-473 474 480 0
475 -476 481 0
-475 -476 -481 0
475 476 -481 0
-475 476 481 0
477 -478 482 0
-477 -478 -482 0
477 478 -482 0
-477 478 482 0
479 -480 483 0
-479 -480 -483 0
479 480 -483 0
-479 480 483 0
481 -482 484 0
-481 -482 -484 0
481 482 -484 0
-481 482 484 0
483 484 0
-483 -484 0
-12 485 0
-24 485 0
-12 -24 486 0
-23 485 0
-12 -23 486 0
-24 -23 486 0
-12 -24 -23 487 0
-22 488 0
-21 488 0
-22 -21 489 0
-20 488 0
-22 -20 489 0
-21 -20 489 0
-22 -21 -20 490 0
-485 491 0
-486 492 0
-487 493 0
-488 491 0
-489 492 0
-490 493 0
-485 -488 492 0
-485 -489 493 0
-485 -490 494 0
-486 -488 493 0
-486 -489 494 0
-486 -490 495 0
-487 -488 494 0
-487 -489 495 0
-487 -490 496 0
-19 497 0
-18 497 0
-19 -18 498 0
-17 497 0
-19 -17 498 0
-18 -17 498 0
-19 -18 -17 499 0
-16 500 0
-15 500 0
-16 -15 501 0
-14 500 0
-16 -14 501 0
-15 -14 501 0
-16 -15 -14 502 0
-497 503 0
-498 504 0
-499 505 0
-500 503 0
-501 504 0
-502 505 0
-497 -500 504 0
-497 -501 505 0
-497 -502 506 0
-498 -500 505 0
-498 -501 506 0
-498 -502 507 0
-499 -500 506 0
-499 -501 507 0
-499 -502 508 0
-13 509 0
-25 509 0
-13 -25 510 0
-11 509 0
-13 -11 510 0
-25 -11 510 0
-13 -25 -11 511 0
-10 512 0
-9 512 0
-10 -9 513 0
-8 512 0
-10 -8 513 0
-9 -8 513 0
-10 -9 -8 514 0
-509 515 0
-510 516 0
-511 517 0
-512 515 0
-513 516 0
-514 517 0
-509 -512 516 0
-509 -513 517 0
-509 -514 518 0
-510 -512 517 0
-510 -513 518 0
-510 -514 519 0
-511 -512 518 0
-511 -513 519 0
-511 -514 520 0
-7 521 0
-6 521 0
-7 -6 522 0
-5 521 0
-7 -5 522 0
-6 -5 522 0
-7 -6 -5 523 0
-4 524 0
-3 524 0
-4 -3 525 0
-2 526 0
-1 526 0
-2 -1 527 0
-37 526 0
-2 -37 527 0
-1 -37 527 0
-2 -1 -37 528 0
-524 529 0
-525 530 0
-526 529 0
-527 530 0
-528 531 0
-524 -526 530 0
-524 -527 531 0
-524 -528 532 0
-525 -526 531 0
-525 -527 532 0
-525 -528 533 0
-521 534 0
-522 535 0
-523 536 0
-529 534 0
-530 535 0
-531 536 0
-532 537 0
-533 538 0
-521 -529 535 0
-521 -530 536 0
-521 -531 537 0
-521 -532 538 0
-521 -533 539 0
-522 -529 536 0
-522 -530 537 0
-522 -531 538 0
-522 -532 539 0
-522 -533 540 0
-523 -529 537 0
-523 -530 538 0
-523 -531 539 0
-523 -532 540 0
-523 -533 541 0
-49 542 0
-48 542 0
-49 -48 543 0
-47 542 0
-49 -47 543 0
-48 -47 543 0
-49 -48 -47 544 0
-46 545 0
-45 545 0
-46 -45 546 0
-44 547 0
-43 547 0
-44 -43 548 0
-42 547 0
-44 -42 548 0
-43 -42 548 0
-44 -43 -42 549 0
-545 550 0
-546 551 0
-547 550 0
-548 551 0
-549 552 0
-545 -547 551 0
-545 -548 552 0
-545 -549 553 0
-546 -547 552 0
-546 -548 553 0
-546 -549 554 0
-542 555 0
-543 556 0
-544 557 0
-550 555 0
-551 556 0
-552 557 0
-553 558 0
-554 559 0
-542 -550 556 0
-542 -551 557 0
-542 -552 558 0
-542 -553 559 0
-542 -554 560 0
-543 -550 557 0
-543 -551 558 0
-543 -552 559 0
-543 -553 560 0
-543 -554 561 0
-544 -550 558 0
-544 -551 559 0
-544 -552 560 0
-544 -553 561 0
-544 -554 562 0
-41 563 0
-40 563 0
-41 -40 564 0
-39 563 0
-41 -39 564 0
-40 -39 564 0
-41 -40 -39 565 0
-38 566 0
-50 566 0
-38 -50 567 0
-36 568 0
-35 568 0
-36 -35 569 0
-34 568 0
-36 -34 569 0
-35 -34 569 0
-36 -35 -34 570 0
-566 571 0
-567 572 0
-568 571 0
-569 572 0
-570 573 0
-566 -568 572 0
-566 -569 573 0
-566 -570 574 0
-567 -568 573 0
-567 -569 574 0
-567 -570 575 0
-563 576 0
-564 577 0
-565 578 0
-571 576 0
-572 577 0
-573 578 0
-574 579 0
-575 580 0
-563 -571 577 0
-563 -572 578 0
-563 -573 579 0
-563 -574 580 0
-563 -575 581 0
-564 -571 578 0
-564 -572 579 0
-564 -573 580 0
-564 -574 581 0
-564 -575 582 0
-565 -571 579 0
-565 -572 580 0
-565 -573 581 0
-565 -574 582 0
-565 -575 583 0
-33 584 0
-32 584 0
-33 -32 585 0
-31 584 0
-33 -31 585 0
-32 -31 585 0
-33 -32 -31 586 0
-30 587 0
-29 587 0
-30 -29 588 0
-28 589 0
-27 589 0
-28 -27 590 0
-26 589 0
-28 -26 590 0
-27 -26 590 0
-28 -27 -26 591 0
-587 592 0
-588 593 0
-589 592 0
-590 593 0
-591 594 0
-587 -589 593 0
-587 -590 594 0
-587 -591 595 0
-588 -589 594 0
-588 -590 595 0
-588 -591 596 0
-584 597 0
-585 598 0
-586 599 0
-592 597 0
-593 598 0
-594 599 0
-595 600 0
-596 601 0
-584 -592 598 0
-584 -593 599 0
-584 -594 600 0
-584 -595 601 0
-584 -596 602 0
-585 -592 599 0
-585 -593 600 0
-585 -594 601 0
-585 -595 602 0
-585 -596 603 0
-586 -592 600 0
-586 -593 601 0
-586 -594 602 0
-586 -595 603 0
-586 -596 604 0
-576 605 0
-578 606 0
-580 607 0
-582 608 0
-597 605 0
-599 606 0
-601 607 0
-603 608 0
-576 -597 606 0
-576 -599 607 0
-576 -601 608 0
-576 -603 609 0
-578 -597 607 0
-578 -599 608 0
-578 -601 609 0
-578 -603 610 0
-580 -597 608 0
-580 -599 609 0
-580 -601 610 0
-582 -597 609 0
-582 -599 610 0
-577 611 0
-581 612 0
-598 611 0
-602 612 0
-577 -598 612 0
-577 -602 613 0
-581 -598 613 0
-579 614 0
-583 615 0
-600 614 0
-604 615 0
-579 -600 615 0
-612 616 0
-614 616 0
-612 -614 617 0
-613 618 0
-615 618 0
-613 -615 619 0
-606 620 0
-611 620 0
-606 -611 621 0
-607 622 0
-616 622 0
-607 -616 623 0
-608 624 0
-617 624 0
-608 -617 625 0
-609 626 0
-618 626 0
-609 -618 627 0
-610 628 0
-619 628 0
-610 -619 629 0
-555 630 0
-557 631 0
-559 632 0
-561 633 0
-605 630 0
-621 631 0
-623 632 0
-625 633 0
-627 634 0
-629 635 0
-555 -605 631 0
-555 -621 632 0
-555 -623 633 0
-555 -625 634 0
-555 -627 635 0
-557 -605 632 0
-557 -621 633 0
-557 -623 634 0
-557 -625 635 0
-559 -605 633 0
-559 -621 634 0
-559 -623 635 0
-561 -605 634 0
-561 -621 635 0
-556 636 0
-560 637 0
-620 636 0
-624 637 0
-628 638 0
-556 -620 637 0
-556 -624 638 0
-560 -620 638 0
-558 639 0
-562 640 0
-622 639 0
-626 640 0
-558 -622 640 0
-637 641 0
-639 641 0
-637 -639 642 0
-638 643 0
-640 643 0
-638 -640 644 0
-631 645 0
-636 645 0
-631 -636 646 0
-632 647 0
-641 647 0
-632 -641 648 0
-633 649 0
-642 649 0
-633 -642 650 0
-634 651 0
-643 651 0
-634 -643 652 0
-635 653 0
-644 653 0
-635 -644 654 0
-534 655 0
-536 656 0
-538 657 0
-540 658 0
-630 655 0
-646 656 0
-648 657 0
-650 658 0
-652 659 0
-654 660 0
-534 -630 656 0
-534 -646 657 0
-534 -648 658 0
-534 -650 659 0
-534 -652 660 0
-536 -630 657 0
-536 -646 658 0
-536 -648 659 0
-536 -650 660 0
-538 -630 658 0
-538 -646 659 0
-538 -648 660 0
-540 -630 659 0
-540 -646 660 0
-535 661 0
-539 662 0
-645 661 0
-649 662 0
-653 663 0
-535 -645 662 0
-535 -649 663 0
-539 -645 663 0
-537 664 0
-541 665 0
-647 664 0
-651 665 0
-537 -647 665 0
-662 666 0
-664 666 0
-662 -664 667 0
-663 668 0
-665 668 0
-663 -665 669 0
-656 670 0
-661 670 0
-656 -661 671 0
-657 672 0
-666 672 0
-657 -666 673 0
-658 674 0
-667 674 0
-658 -667 675 0
-659 676 0
-668 676 0
-659 -668 677 0
-660 678 0
-669 678 0
-660 -669 679 0
-515 680 0
-517 681 0
-519 682 0
-655 680 0
-671 681 0
-673 682 0
-675 683 0
-677 684 0
-679 685 0
-515 -655 681 0
-515 -671 682 0
-515 -673 683 0
-515 -675 684 0
-515 -677 685 0
-517 -655 682 0
-517 -671 683 0
-517 -673 684 0
-517 -675 685 0
-519 -655 683 0
-519 -671 684 0
-519 -673 685 0
-516 686 0
-518 687 0
-520 688 0
-670 686 0
-672 687 0
-674 688 0
-676 689 0
-678 690 0
-516 -670 687 0
-516 -672 688 0
-516 -674 689 0
-516 -676 690 0
-518 -670 688 0
-518 -672 689 0
-518 -674 690 0
-520 -670 689 0
-520 -672 690 0
-681 691 0
-686 691 0
-681 -686 692 0
-682 693 0
-687 693 0
-682 -687 694 0
-683 695 0
-688 695 0
-683 -688 696 0
-684 697 0
-689 697 0
-684 -689 698 0
-685 699 0
-690 699 0
-685 -690 700 0
-503 701 0
-505 702 0
-507 703 0
-680 701 0
-692 702 0
-694 703 0
-696 704 0
-698 705 0
-700 706 0
-503 -680 702 0
-503 -692 703 0
-503 -694 704 0
-503 -696 705 0
-503 -698 706 0
-505 -680 703 0
-505 -692 704 0
-505 -694 705 0
-505 -696 706 0
-507 -680 704 0
-507 -692 705 0
-507 -694 706 0
-504 707 0
-506 708 0
-508 709 0
-691 707 0
-693 708 0
-695 709 0
-697 710 0
-699 711 0
-504 -691 708 0
-504 -693 709 0
-504 -695 710 0
-504 -697 711 0
-506 -691 709 0
-506 -693 710 0
-506 -695 711 0
-508 -691 710 0
-508 -693 711 0
-702 712 0
-707 712 0
-702 -707 713 0
-703 714 0
-708 714 0
-703 -708 715 0
-704 716 0
-709 716 0
-704 -709 717 0
-705 718 0
-710 718 0
-705 -710 719 0
-706 720 0
-711 720 0
-706 -711 721 0
-491 722 0
-493 723 0
-495 724 0
-701 722 0
-713 723 0
-715 724 0
-717 725 0
-719 726 0
-721 727 0
-491 -701 723 0
-491 -713 724 0
-491 -715 725 0
-491 -717 726 0
-491 -719 727 0
-493 -701 724 0
-493 -713 725 0
-493 -715 726 0
-493 -717 727 0
-495 -701 725 0
-495 -713 726 0
-495 -715 727 0
-492 728 0
-494 729 0
-496 730 0
-712 728 0
-714 729 0
-716 730 0
-718 731 0
-720 732 0
-492 -712 729 0
-492 -714 730 0
-492 -716 731 0
-492 -718 732 0
-494 -712 730 0
-494 -714 731 0
-494 -716 732 0
-496 -712 731 0
-496 -714 732 0
-723 733 0
-728 733 0
-723 -728 734 0
-724 735 0
-729 735 0
-724 -729 736 0
-725 737 0
-730 737 0
-725 -730 738 0
-726 739 0
-731 739 0
-726 -731 740 0
-727 741 0
-732 741 0
-727 -732 742 0
-742 0
